32      4       
10      10      10      10      
0       0       0       0       0       15      2       3       4       5       6       7       8       9       10      12      13      14      15      30      31      
6       0       1       1       1       7       11      17      18      20      25      27      28      
5       1       5       4       0       4       11      20      21      24      
4       6       5       0       3       3       22      25      29      
7       0       6       6       4       3       17      19      26      
6       0       4       6       2       3       16      22      23      
4       4       5       0       3       2       11      24      
1       6       0       4       1       2       18      23      
8       0       4       4       5       2       16      19      
3       0       4       4       4       2       17      19      
3       3       4       10      0       1       16      
7       2       3       3       0       1       16      
4       6       8       3       0       1       18      
6       6       0       2       5       1       20      
3       3       3       0       5       1       21      
7       4       0       7       3       1       32      
7       0       5       5       2       1       32      
5       5       0       9       1       1       32      
8       0       2       3       7       1       32      
8       2       1       0       4       1       32      
6       7       5       0       5       1       32      
9       2       5       2       0       1       32      
2       0       6       3       6       1       32      
9       4       5       2       0       1       32      
7       5       2       0       5       1       32      
1       5       8       0       5       1       32      
4       0       4       2       7       1       32      
2       3       2       4       0       1       32      
3       5       3       0       4       1       32      
5       1       1       2       0       1       32      
6       0       3       2       6       1       32      
0       0       0       0       0       0       
